;  time  = 600
;  terms = 155
;  score = 0.16216216216216217
(set-logic QF_FP)
(declare-const x0 (_ FloatingPoint 8 24))
(declare-const x1 (_ FloatingPoint 8 24))
(declare-const x2 (_ FloatingPoint 8 24))
(declare-const x3 (_ FloatingPoint 8 24))
(declare-const x4 (_ FloatingPoint 8 24))
(declare-const x5 (_ FloatingPoint 8 24))
(declare-const x6 (_ FloatingPoint 8 24))
(declare-const x7 (_ FloatingPoint 8 24))
(declare-const x8 (_ FloatingPoint 8 24))
(declare-const x9 (_ FloatingPoint 8 24))
(declare-const x10 (_ FloatingPoint 8 24))
(declare-const x11 (_ FloatingPoint 8 24))
(declare-const x12 (_ FloatingPoint 8 24))
(declare-const x13 (_ FloatingPoint 8 24))
(declare-const x14 (_ FloatingPoint 8 24))
(assert (fp.gt (fp.mul RNE (fp.add RNE (fp.add RNE x11 (fp.add RNE (fp.add RNE x9 (fp.add RNE x14 (fp.neg (fp.mul RNE x5 (fp.abs x13))))) (fp.mul RNE (fp.add RNE (fp.add RNE (fp.neg x11) x10) (fp.add RNE x14 x1)) (fp.neg (fp.mul RNE x8 x14))))) (fp.mul RNE x10 (fp.mul RNE x14 (fp.mul RNE (fp.mul RNE (fp.mul RNE (fp.abs x12) x3) x2) (fp.abs (fp.add RNE (fp.add RNE (fp.abs x2) (fp.sub RNE x5 x7)) (fp.abs (fp.sub RNE x4 x11)))))))) (fp.mul RNE x13 (fp.mul RNE (fp.add RNE (fp.mul RNE (fp.sub RNE (fp.mul RNE x10 (fp.neg (fp.add RNE x12 x11))) (fp.abs (fp.add RNE (fp.add RNE x8 x0) x7))) (fp.abs x11)) (fp.neg (fp.neg x14))) (fp.sub RNE x1 x13)))) (fp.mul RNE x14 (fp.add RNE (fp.mul RNE (fp.neg x12) (fp.sub RNE (fp.sub RNE (fp.neg (fp.mul RNE (fp.add RNE x0 (fp.abs x0)) (fp.abs (fp.neg x0)))) (fp.add RNE x8 x0)) (fp.neg (fp.mul RNE x6 (fp.neg (fp.add RNE (fp.mul RNE x12 x11) x6)))))) (fp.mul RNE x4 (fp.add RNE (fp.mul RNE (fp.add RNE (fp.add RNE (fp.sub RNE (fp.add RNE x1 x12) (fp.abs x11)) (fp.abs (fp.mul RNE x11 x4))) (fp.mul RNE x7 x13)) (fp.neg (fp.sub RNE (fp.add RNE (fp.mul RNE x1 x11) (fp.mul RNE x5 x10)) (fp.neg x3)))) (fp.add RNE (fp.add RNE x10 (fp.neg (fp.neg (fp.sub RNE x12 x4)))) (fp.add RNE x6 (fp.mul RNE x3 (fp.mul RNE (fp.sub RNE x10 x5) (fp.sub RNE x9 x4)))))))))))
(check-sat)